100 80336

 995 668
905 380
483 711
395 919
703 981
876 674
460 907
835 470
693 746
935 675
78 116
952 605
412 42
75 796
295 379
793 722
21 206
906 466
171 732
15 280
211 648
560 618
86 118
149 237
700 309
372 456
480 900
818 475
151 100
141 261
69 993
260 305
988 354
846 286
968 328
521 103
633 63
371 687
419 282
101 441
661 293
954 738
658 7
865 639
968 936
243 92
753 935
512 190
849 871
555 476
95 511
226 462
518 53
214 754
718 486
67 644
396 490
612 978
12 364
237 112
834 409
770 7
399 742
407 668
925 197
849 835
480 876
647 735
222 367
156 250
654 916
428 595
158 240
977 380
416 907
326 872
371 835
344 471
262 775
283 919
850 701
856 455
229 366
888 290
280 874
870 403
290 58
680 521
47 304
975 115
715 210
214 41
758 816
24 173
321 234
274 793
556 884
844 590
313 620
363 793
